120
1000
200
200
199
199
198
198
198
196
195
195
194
194
194
194
193
193
193
193
193
190
190
190
190
189
189
189
188
188
187
186
186
185
185
185
184
184
184
183
183
182
181
181
181
180
180
180
180
180
180
177
177
177
176
176
176
175
175
175
175
174
174
173
172
172
171
171
171
170
169
168
168
167
167
167
167
166
164
164
164
163
163
162
162
162
162
162
161
161
160
160
160
160
159
159
159
158
158
157
157
156
155
155
155
155
155
155
155
154
154
154
154
153
153
151
151
150
150
150
150
150
